127 133853
1 79 80 76 78 117 84 81 126 82 75 96 109 88 87 86 85 110 71 73 67 74 72 8 19 22 23 4 20 6 108 21 17 18 77 68 70 69 119 63 83 102 101 98 97 123 28 122 33 29 32 25 26 38 39 42 34 43 30 27 31 12 14 41 36 37 35 40 44 47 53 118 48 49 46 94 112 111 107 127 93 95 103 45 54 57 50 13 115 10 120 7 105 114 106 15 24 9 11 3 100 64 58 91 61 90 116 60 62 59 104 125 89 92 99 65 113 66 55 124 52 5 56 121 51 2 16 
